NAME: tsp40_9
COMMENT: 40-tsp problem (Padberg/Rinaldi)
TYPE: TSP
DIMENSION: 40
EDGE_WEIGHT_TYPE : EUC_2D
NODE_COORD_SECTION
1 31 17
2 27 26
3 32 20
4 29 27
5 31 5
6 26 40
7 29 22
8 24 20
9 32 10
10 36 30
11 39 34
12 20 29
13 27 10
14 19 37
15 31 34
16 28 26
17 20 3
18 8 11
19 8 10
20 13 6
21 7 26
22 34 7
23 2 29
24 17 36
25 22 27
26 6 12
27 1 1
28 37 36
29 26 28
30 8 36
31 7 31
32 15 37
33 16 16
34 26 17
35 17 20
36 21 15
37 4 34
38 40 24
39 2 10
40 34 36
